NAME: inst1
TYPE: ATSP
DIMENSION: 8
EDGE_WEIGHT_TYPE: EXPLICIT
EDGE_WEIGHT_FORMAT: FULL_MATRIX
EDGE_WEIGHT_SECTION:
0 20 15 25 30 10 40 35
12 0 18 45 50 28 60 15
30 25 0 35 40 22 50 45
20 60 45 0 55 38 70 25
10 15 25 30 0 20 25 30
50 40 35 15 10 0 40 20
25 30 20 50 55 30 0 45
15 22 10 20 25 15 35 0
EOF